20	5
0	9	1	2	7	5	9	4	6	3	8
1	1	11
2	4	16	20	19	15
3	2	19	17
4	3	15	12	14
5	3	15	19	20
6	2	12	10
7	2	18	20
8	4	14	13	19	15
9	6	19	16	20	18	17	15
10	2	13	14
11	1	10
12	4	19	16	20	13
13	2	17	18
14	3	20	17	16
15	1	21
16	1	21
17	1	21
18	1	21
19	1	21
20	1	21
21	0
0	0	0	0	0	0	0
1	5	0	5	1	3	2
2	6	1	3	5	0	5
3	7	0	1	1	3	0
4	2	5	4	1	3	2
5	5	0	0	0	0	2
6	10	4	3	3	1	0
7	10	4	4	3	4	5
8	2	3	1	5	2	5
9	4	4	0	0	2	0
10	5	0	0	1	0	3
11	4	4	3	1	0	1
12	1	0	2	2	5	0
13	9	1	4	2	1	5
14	9	4	1	3	1	1
15	1	5	0	5	0	1
16	9	3	2	3	1	1
17	5	0	3	3	5	1
18	5	4	2	2	1	1
19	9	3	3	4	0	4
20	10	0	0	3	5	0
21	0	0	0	0	0	0
7	8	8	6	7
